
  22   10
  10   10   10   10   10   10   10   10   10   10

   0   0   0   0   0   0   0   0   0   0   0   1 2 
   2  10  10  10  10  10  10  10  10  10  10   3 21 11 3 
   3  10  10  10  10  10  10  10  10  10  10   3 20 19 4 
   3  10  10  10  10  10  10  10  10  10  10   2 18 5 
   9  10  10  10  10  10  10  10  10  10  10   1 6 
   7  10  10  10  10  10  10  10  10  10  10   1 7 
   9  10  10  10  10  10  10  10  10  10  10   1 8 
   4  10  10  10  10  10  10  10  10  10  10   2 17 9 
   4  10  10  10  10  10  10  10  10  10  10   1 10 
   1  10  10  10  10  10  10  10  10  10  10   1 12 
  10  10  10  10  10  10  10  10  10  10  10   1 12 
   3  10  10  10  10  10  10  10  10  10  10   1 13 
   4  10  10  10  10  10  10  10  10  10  10   1 14 
   5  10  10  10  10  10  10  10  10  10  10   1 15 
   9  10  10  10  10  10  10  10  10  10  10   1 16 
  10  10  10  10  10  10  10  10  10  10  10   1 22
   8  10  10  10  10  10  10  10  10  10  10   1 22
   9  10  10  10  10  10  10  10  10  10  10   1 22
   9  10  10  10  10  10  10  10  10  10  10   1 22
   8  10  10  10  10  10  10  10  10  10  10   1 22
   9  10  10  10  10  10  10  10  10  10  10   1 22
   0   0   0   0   0   0   0   0   0   0   0   0 
